1216860
37,75,44,85,3,65,38,13,72,24,50,11,39,93,25,78,28,77,94,46,56,8,32,0,69,31,36,59,61,29,20,19,95,55,9,5,17,68,48,76,74,40,30,92,67,49,87,14,60,81,15,80,6,83,91,21,16,23,42,51,64,18,89,58,97,53,33,70,22,10,27,45,57,82,66,34,96,41,1,26,63,2,4,84,88,7,52,54,43,90,35,71,12,62,79,98,73,47,86
